29312
Route #1: 17 80
Route #2: 8 3 64 34
Route #3: 54 92 66
Route #4: 69 16 55 76
Route #5: 18 4 7 49
Route #6: 86 68 84
Route #7: 42 6 37
Route #8: 36 29 43 45 2 65
Route #9: 56 94 96 40
Route #10: 63 28 14 77
Route #11: 39 25 10
Route #12: 60 57 72 82 88
Route #13: 59 67 44
Route #14: 13 74 90
Route #15: 9 70 1
Route #16: 78 87 48 26 47 38
Route #17: 61 100
Route #18: 31 93
Route #19: 23 50 79
Route #20: 11 85 30 75
Route #21: 19 81 91 97
Route #22: 52 27 21
Route #23: 24 95 73 53 33 32
Route #24: 89 98 99 62 71
Route #25: 51 83
Route #26: 58 12 5
Route #27: 15 22 41 20
Route #28: 35 46
